
#(C) 2025 by FIZ Karlsruhe - Leibniz Institute for Information Infrastructure.  All rights reserved.
data_95449-ICSD
_database_code_ICSD 95449
_audit_creation_date 2003-10-01
_chemical_name_common 'Nickel silicide (1/1)'
_chemical_formula_structural 'Ni Si'
_chemical_formula_sum 'Ni1 Si1'
_chemical_name_structure_type MnP
_exptl_crystal_density_diffrn 5.93
_diffrn_ambient_temperature 418.
_citation_title

;
Atomic structure and enormous anisotropy of thermal expansion in Ni Si single
crystals. I. Refinement of structure models
;
loop_
_citation_id
_citation_journal_full
_citation_year
_citation_journal_volume
_citation_page_first
_citation_page_last
_citation_journal_id_ASTM
primary Kristallografiya 2002 47 40 45 KRISAJ
loop_
_citation_author_citation_id
_citation_author_name
primary 'Rabadanov, M.Kh.'
primary 'Ataev, M.B.'
_cell_length_a 5.194(1)
_cell_length_b 3.3232(8)
_cell_length_c 5.629(1)
_cell_angle_alpha 90
_cell_angle_beta 90
_cell_angle_gamma 90
_cell_volume 97.16
_cell_formula_units_Z 4
_space_group_name_H-M_alt 'P n m a'
_space_group_IT_number 62
loop_
_space_group_symop_id
_space_group_symop_operation_xyz
1 'x+1/2, y, -z+1/2'
2 'x, -y+1/2, z'
3 '-x+1/2, y+1/2, z+1/2'
4 '-x, -y, -z'
5 '-x+1/2, -y, z+1/2'
6 '-x, y+1/2, -z'
7 'x+1/2, -y+1/2, -z+1/2'
8 'x, y, z'
loop_
_atom_type_symbol
_atom_type_oxidation_number
Ni0+ 0
Si0+ 0
loop_
_atom_site_label
_atom_site_type_symbol
_atom_site_symmetry_multiplicity
_atom_site_Wyckoff_symbol
_atom_site_fract_x
_atom_site_fract_y
_atom_site_fract_z
_atom_site_B_iso_or_equiv
_atom_site_occupancy
Ni1 Ni0+ 4 c 0.00757(2) 0.25 0.18772(2) . 1.
Si1 Si0+ 4 c 0.32090(6) 0.75 0.08168(6) . 1.
loop_
_atom_site_aniso_label
_atom_site_aniso_type_symbol
_atom_site_aniso_beta_11
_atom_site_aniso_beta_22
_atom_site_aniso_beta_33
_atom_site_aniso_beta_12
_atom_site_aniso_beta_13
_atom_site_aniso_beta_23
Ni1 Ni0+ 0.00507(4) 0.01026(4) 0.00661(4) 0. -0.00001(1) 0.
Si1 Si0+ 0.00599(8) 0.00878(8) 0.00892(8) 0. -0.00029(3) 0.
#End of TTdata_95449-ICSD